teams = 6;
boards = 6;
players = 36;
requests = 9;

singleRequests = 11;
doubleRequests = 0;
minRating = 1607;
maxRating = 2401;

Rating = [2401, 2356, 2343, 2314, 2309, 2298, 2067, 2060, 2033, 2027, 2026, 2020, 1949, 1940, 1940, 1928, 1927, 1924, 1836, 1836, 1834, 1831, 1826, 1824, 1741, 1738, 1737, 1734, 1722, 1717, 1639, 1635, 1624, 1622, 1610, 1607];

Board = [1, 1, 1, 1, 1, 1, 2, 2, 2, 2, 2, 2, 3, 3, 3, 3, 3, 3, 4, 4, 4, 4, 4, 4, 5, 5, 5, 5, 5, 5, 6, 6, 6, 6, 6, 6];

Requestees = {1, 3, 5, 6, 8, 11, 15, 19, 20, 22, 26, 27, 28, 34};

SingleRequested = array2d(1..singleRequests,1..2,[11, 5, 8, 19, 8, 23, 11, 27, 15, 17, 27, 17, 20, 18, 22, 19, 19, 34, 22, 25, 22, 29]);

DoubleRequested = array2d(1..doubleRequests,1..2,[]);